RT is False
Default write of storage_offers_DA.csv just to have a file (but constraint should be inactive)
Reading model...
...model read.
creating competitive generators file...
...competitive generators recorded.
Loading data...
.. day-ahead data with real-time VRE data read.
Compiling instance...
...instance created.
Creating Offer Mitigation (model will solve as dispatch if TRUE)...
Solving...

Welcome to IBM(R) ILOG(R) CPLEX(R) Interactive Optimizer 12.9.0.0
  with Simplex, Mixed Integer & Barrier Optimizers
5725-A06 5725-A29 5724-Y48 5724-Y49 5724-Y54 5724-Y55 5655-Y21
Copyright IBM Corp. 1988, 2019.  All Rights Reserved.

Type 'help' for a list of available commands.
Type 'help' followed by a command name for more
information on commands.

CPLEX> Logfile 'cplex.log' closed.
Logfile 'C:\Users\llavin\Desktop\test919\logs\tmptax9urg1.cplex.log' open.
CPLEX> New value for parallel optimization mode: -1
CPLEX> New value for mixed integer optimality gap tolerance: 0.01
CPLEX> New value for integrality tolerance: 1e-09
CPLEX> New value for feasibility tolerance: 0.01
CPLEX> New value for deterministic time limit in ticks: 75000
CPLEX> Problem 'C:\Users\llavin\Desktop\test919\logs\tmpkm9mml0t.pyomo.lp' read.
Read time = 0.06 sec. (3.04 ticks)
CPLEX> Problem name         : C:\Users\llavin\Desktop\test919\logs\tmpkm9mml0t.pyomo.lp
Objective sense      : Minimize
Variables            :   26081  [Nneg: 1,  Box: 21616,  Free: 4464]
Objective nonzeros   :    2496
Linear constraints   :   27515  [Less: 14006,  Greater: 4416,  Equal: 9093]
  Nonzeros           :   89267
  RHS nonzeros       :   12264

Variables            : Min LB: -5000.000        Max UB: 1000000.       
Objective nonzeros   : Min   : 15.73158         Max   : 124.0997       
Linear constraints   :
  Nonzeros           : Min   : 0.8500000        Max   : 3000.000       
  RHS nonzeros       : Min   : 0.008333333      Max   : 5000.000       
CPLEX> CPXPARAM_Parallel                                -1
CPXPARAM_Simplex_Tolerances_Feasibility          0.01
CPXPARAM_DetTimeLimit                            75000
CPXPARAM_MIP_Tolerances_MIPGap                   0.01
CPXPARAM_MIP_Tolerances_Integrality              1.0000000000000001e-09
Parallel mode: opportunistic, using up to 32 threads for concurrent optimization.
Tried aggregator 1 time.
LP Presolve eliminated 21353 rows and 15463 columns.
Aggregator did 776 substitutions.
Reduced LP has 5386 rows, 9842 columns, and 31800 nonzeros.
Presolve time = 0.05 sec. (30.46 ticks)
Symmetry aggregator did 5563 additional substitutions.

Iteration log . . .
Iteration:     1   Dual objective     =             0.000000
Perturbation started.
Iteration:   101   Dual objective     =             0.000000
Iteration:   337   Dual objective     =             1.207886
Iteration:   576   Dual objective     =             1.701005
Iteration:   825   Dual objective     =             1.832708
Iteration:  1018   Dual objective     =             1.951265
Iteration:  1291   Dual objective     =             2.003058
Iteration:  1534   Dual objective     =             2.035012
Iteration:  1752   Dual objective     =             2.055164
Iteration:  1958   Dual objective     =             2.076595
Iteration:  2161   Dual objective     =             2.087878
Iteration:  2383   Dual objective     =         11723.166936
Iteration:  2646   Dual objective     =         19127.868767
Iteration:  3028   Dual objective     =         23387.970080
Removing perturbation.

Dual crossover.
  Dual:  Fixed no variables.
  Primal:  Fixed no variables.
Using devex.

Primal simplex solved model.


Primal simplex - Optimal:  Objective =  2.3564259746e+04
Solution time =    0.16 sec.  Iterations = 1527 (1073)
Deterministic time = 78.42 ticks  (502.69 ticks/sec)

CPLEX> Solution written to file 'C:\Users\llavin\Desktop\test919\logs\tmpa4j0qw64.cplex.sol'.
CPLEX> Exporting results... 
...storage offer mitigation file created
Converting model to MPEC...
...converted
NOTE: initial MIP solve with only storage competitive to get feasible solution
Solving...

Welcome to IBM(R) ILOG(R) CPLEX(R) Interactive Optimizer 12.9.0.0
  with Simplex, Mixed Integer & Barrier Optimizers
5725-A06 5725-A29 5724-Y48 5724-Y49 5724-Y54 5724-Y55 5655-Y21
Copyright IBM Corp. 1988, 2019.  All Rights Reserved.

Type 'help' for a list of available commands.
Type 'help' followed by a command name for more
information on commands.

CPLEX> Logfile 'cplex.log' closed.
Logfile 'C:\Users\llavin\Desktop\test919\logs\tmpwyqluvqv.cplex.log' open.
CPLEX> New value for parallel optimization mode: -1
CPLEX> New value for mixed integer optimality gap tolerance: 0.01
CPLEX> New value for integrality tolerance: 1e-09
CPLEX> New value for feasibility tolerance: 0.01
CPLEX> New value for deterministic time limit in ticks: 75000
CPLEX> Problem 'C:\Users\llavin\Desktop\test919\logs\tmpyrclrxs5.pyomo.lp' read.
Read time = 0.25 sec. (14.78 ticks)
CPLEX> Problem name         : C:\Users\llavin\Desktop\test919\logs\tmpyrclrxs5.pyomo.lp
Objective sense      : Maximize
Variables            :   53805  [Nneg: 1,  Box: 22000,  Free: 4464,
                                 Binary: 27340]
Objective nonzeros   :    8973
Linear constraints   :  123205  [Less: 41346,  Greater: 59096,  Equal: 22763]
  Nonzeros           :  291794
  RHS nonzeros       :   67408

Variables            : Min LB: -5000.000        Max UB: 1000000.       
Objective nonzeros   : Min   : 0.008333333      Max   : 833.8833       
Linear constraints   :
  Nonzeros           : Min   : 0.008333333      Max   : 1000000.       
  RHS nonzeros       : Min   : 0.008333333      Max   : 1000000.       
CPLEX> CPXPARAM_Parallel                                -1
CPXPARAM_Simplex_Tolerances_Feasibility          0.01
CPXPARAM_DetTimeLimit                            75000
CPXPARAM_MIP_Tolerances_MIPGap                   0.01
CPXPARAM_MIP_Tolerances_Integrality              1.0000000000000001e-09
Tried aggregator 3 times.
MIP Presolve eliminated 88686 rows and 18983 columns.
MIP Presolve added 3382 rows and 0 columns.
MIP Presolve modified 24847 coefficients.
Aggregator did 13003 substitutions.
Reduced MIP has 24898 rows, 21260 columns, and 71040 nonzeros.
Reduced MIP has 8393 binaries, 0 generals, 0 SOSs, and 0 indicators.
Presolve time = 0.30 sec. (173.75 ticks)
Probing fixed 404 vars, tightened 2860 bounds.
Probing time = 1.22 sec. (900.84 ticks)
Tried aggregator 2 times.
MIP Presolve eliminated 911 rows and 809 columns.
MIP Presolve modified 2185 coefficients.
Aggregator did 40 substitutions.
Reduced MIP has 23947 rows, 20411 columns, and 68284 nonzeros.
Reduced MIP has 7989 binaries, 0 generals, 0 SOSs, and 0 indicators.
Presolve time = 0.11 sec. (67.63 ticks)
Probing fixed 0 vars, tightened 2 bounds.
Probing time = 0.06 sec. (27.92 ticks)
Clique table members: 6462.
MIP emphasis: balance optimality and feasibility.
MIP search method: dynamic search.
Parallel mode: opportunistic, using up to 32 threads.
Root relaxation solution time = 0.30 sec. (235.70 ticks)

        Nodes                                         Cuts/
   Node  Left     Objective  IInf  Best Integer    Best Bound    ItCnt     Gap

      0     0     2266.0759  1531                   2266.0759     5386         
      0     3    infeasible                         2266.0759     5417         
Elapsed time = 8.48 sec. (4856.89 ticks, tree = 0.02 MB, solutions = 0)
*     7+   41                         -915.1438     2266.0759           347.62%
*   218    24      integral     0     2266.0759     2266.0759     6692    0.00%
    377    62      789.7784     9     2266.0759     2266.0759     5753    0.00%
*   415    30      integral     0     2266.0759     2266.0759     6735    0.00%

Cover cuts applied:  1
Flow cuts applied:  1

Root node processing (before b&c):
  Real time             =    7.56 sec. (4850.53 ticks)
Parallel b&c, 32 threads:
  Real time             =    3.08 sec. (514.77 ticks)
  Sync time (average)   =    1.01 sec.
  Wait time (average)   =    0.00 sec.
                          ------------
Total (root+branch&cut) =   10.64 sec. (5365.29 ticks)

Solution pool: 14 solutions saved.

MIP - Integer optimal solution:  Objective =  2.2660758670e+03
Solution time =   10.67 sec.  Iterations = 7048  Nodes = 498
Deterministic time = 5365.45 ticks  (502.76 ticks/sec)

CPLEX> Incumbent solution written to file 'C:\Users\llavin\Desktop\test919\logs\tmpvh61outp.cplex.sol'.
CPLEX> NOTE: no warmstart specified for MIP iteration, default behavior is true
NOTE: resolving with all competitive generators using storage-only solution to warmstart
Solving...

Welcome to IBM(R) ILOG(R) CPLEX(R) Interactive Optimizer 12.9.0.0
  with Simplex, Mixed Integer & Barrier Optimizers
5725-A06 5725-A29 5724-Y48 5724-Y49 5724-Y54 5724-Y55 5655-Y21
Copyright IBM Corp. 1988, 2019.  All Rights Reserved.

Type 'help' for a list of available commands.
Type 'help' followed by a command name for more
information on commands.

CPLEX> Logfile 'cplex.log' closed.
Logfile 'C:\Users\llavin\Desktop\test919\logs\tmpgp67z6z1.cplex.log' open.
CPLEX> New value for parallel optimization mode: -1
CPLEX> New value for mixed integer optimality gap tolerance: 0.01
CPLEX> New value for integrality tolerance: 1e-09
CPLEX> New value for feasibility tolerance: 0.01
CPLEX> New value for deterministic time limit in ticks: 75000
CPLEX> Problem 'C:\Users\llavin\Desktop\test919\logs\tmp58gm9cyu.pyomo.lp' read.
Read time = 0.27 sec. (14.81 ticks)
CPLEX> MIP start file 'C:\Users\llavin\Desktop\test919\logs\tmp9bvote_7.cplex.mst' read.
CPLEX> Problem name         : C:\Users\llavin\Desktop\test919\logs\tmp58gm9cyu.pyomo.lp
Objective sense      : Maximize
Variables            :   54525  [Nneg: 1,  Box: 22720,  Free: 4464,
                                 Binary: 27340]
Objective nonzeros   :    9669
Linear constraints   :  123205  [Less: 41346,  Greater: 59096,  Equal: 22763]
  Nonzeros           :  291794
  RHS nonzeros       :   67408

Variables            : Min LB: -5000.000        Max UB: 1000000.       
Objective nonzeros   : Min   : 0.008333333      Max   : 786.3583       
Linear constraints   :
  Nonzeros           : Min   : 0.008333333      Max   : 1000000.       
  RHS nonzeros       : Min   : 0.008333333      Max   : 1000000.       
CPLEX> CPXPARAM_Parallel                                -1
CPXPARAM_Simplex_Tolerances_Feasibility          0.01
CPXPARAM_DetTimeLimit                            75000
CPXPARAM_MIP_Tolerances_MIPGap                   0.01
CPXPARAM_MIP_Tolerances_Integrality              1.0000000000000001e-09
Warning:  No solution found from 1 MIP starts.
Retaining values of one MIP start for possible repair.
Tried aggregator 3 times.
MIP Presolve eliminated 88686 rows and 19703 columns.
MIP Presolve added 3382 rows and 0 columns.
MIP Presolve modified 24847 coefficients.
Aggregator did 13003 substitutions.
Reduced MIP has 24898 rows, 21260 columns, and 71040 nonzeros.
Reduced MIP has 8393 binaries, 0 generals, 0 SOSs, and 0 indicators.
Presolve time = 0.28 sec. (174.11 ticks)
Probing fixed 404 vars, tightened 2860 bounds.
Probing time = 1.27 sec. (900.84 ticks)
Tried aggregator 2 times.
MIP Presolve eliminated 911 rows and 809 columns.
MIP Presolve modified 2185 coefficients.
Aggregator did 40 substitutions.
Reduced MIP has 23947 rows, 20411 columns, and 68284 nonzeros.
Reduced MIP has 7989 binaries, 0 generals, 0 SOSs, and 0 indicators.
Presolve time = 0.09 sec. (67.63 ticks)
Probing fixed 0 vars, tightened 2 bounds.
Probing time = 0.06 sec. (27.92 ticks)
Clique table members: 6462.
MIP emphasis: balance optimality and feasibility.
MIP search method: dynamic search.
Parallel mode: opportunistic, using up to 32 threads.
Root relaxation solution time = 0.31 sec. (239.78 ticks)

        Nodes                                         Cuts/
   Node  Left     Objective  IInf  Best Integer    Best Bound    ItCnt     Gap

      0     0   129627.7149  1641                 129627.7149     5404         
      0     0   125407.8076   640                   Cuts: 565     5719         
      0     0   124496.8912   557                   Cuts: 226     5858         
      0     0   123607.3546   515                   Cuts: 121     5938         
      0     0   123495.4701   492                   Cuts: 112     5987         
      0     0   123495.4701   472                    Cuts: 78     6022         
      0     0   123495.4701   456                    Cuts: 64     6041         
      0     0   113745.6355   470                    Cuts: 87     6214         
      0     0   113576.5726   446                    Cuts: 91     6240         
      0     0   113565.9220   449                    Cuts: 72     6248         
      0     0   108237.6171   452                    Cuts: 70     6298         
      0     0   108156.6716   452                    Cuts: 68     6327         
      0     0   108136.3212   450                    Cuts: 75     6339         
      0     0   108103.4768   450                    Cuts: 65     6354         
      0     0   108103.4768   450                    Cuts: 55     6361         
      0     0   108101.9258   453                    Cuts: 57     6368         
Repair heuristic found nothing.
      0     8    infeasible                       Impl Bds: 2     6691         
Elapsed time = 12.53 sec. (7506.73 ticks, tree = 0.02 MB, solutions = 0)
    492    78    39643.9361   419                  63874.6687     8541         
   1018   181    31798.0343   302                  63874.6687     9999         
   1414   943   -29297.3148   361                  63874.6687    20948         
   2244   967   -23201.1538   323                  63874.6687    21063         
   3419  1501   -25249.6415   319                  63874.6687    24030         
   4487  2009   -18028.9777   244                  63874.6687    26820         
   5437  3650    -8342.6207   273                  63874.6687    29623         
   6534  4503    12854.5504   248                  63874.6687    32641         
   7879  4669   -18160.2400   291                  63874.6687    33034         
  12100  9528     1347.8579   322                  63874.6687    36837         
Elapsed time = 29.19 sec. (10609.05 ticks, tree = 76.90 MB, solutions = 0)
  13239 10522   -93122.3226    29                  63874.6687    41540         
  15118 11911   -27800.0166   297                  59416.1440    50862         
  17705 13015   -10053.8135   259                  49300.2421    73462         
  20870 12437      871.8520   265                  49300.2421    60983         
* 22105+ 4606                         6157.8929    49124.5019           697.75%
  24956 16800     7534.2717    89     6157.8929    46293.7719   118891  651.78%
  27236 16853   -21854.2078   309     6157.8929    46293.7719   121099  651.78%
  28817 17895  -232111.9332   295     6157.8929    46293.7719   127051  651.78%
  29296  4859     6247.7105   253     6157.8929    46293.7719   145209  651.78%
  29414 17850    infeasible           6157.8929    46293.7719   125283  651.78%
Elapsed time = 58.75 sec. (19716.22 ticks, tree = 154.32 MB, solutions = 2)
  29487  8068    infeasible           6157.8929     7369.2347   189069   19.67%

Clique cuts applied:  2
Cover cuts applied:  14
Implied bound cuts applied:  16
Flow cuts applied:  240
Mixed integer rounding cuts applied:  30
Gomory fractional cuts applied:  82

Root node processing (before b&c):
  Real time             =   11.36 sec. (7498.48 ticks)
Parallel b&c, 32 threads:
  Real time             =   57.81 sec. (18143.71 ticks)
  Sync time (average)   =    2.49 sec.
  Wait time (average)   =    0.24 sec.
                          ------------
Total (root+branch&cut) =   69.17 sec. (25642.19 ticks)

Solution pool: 2 solutions saved.

MIP - Integer optimal, tolerance (0.01/1e-06):  Objective =  6.1578928758e+03
Current MIP best bound =  6.1620371240e+03 (gap = 4.14425, 0.07%)
Solution time =   69.19 sec.  Iterations = 190383  Nodes = 29574 (1)
Deterministic time = 25642.35 ticks  (370.62 ticks/sec)

CPLEX> Incumbent solution written to file 'C:\Users\llavin\Desktop\test919\logs\tmpsfefyex4.cplex.sol'.
CPLEX> Exporting results... 
